c CNF file corresponding to a (partial) station packing problem.
p cnf 3843 229
1 2 3 4 5 6 7 8 9 10 11 12 13 14 0
-1 -2 0
-1 -3 0
-1 -4 0
-1 -5 0
-1 -6 0
-1 -7 0
-1 -8 0
-1 -9 0
-1 -10 0
-1 -11 0
-1 -12 0
-1 -13 0
-1 -14 0
-2 -3 0
-2 -4 0
-2 -5 0
-2 -6 0
-2 -7 0
-2 -8 0
-2 -9 0
-2 -10 0
-2 -11 0
-2 -12 0
-2 -13 0
-2 -14 0
-3 -4 0
-3 -5 0
-3 -6 0
-3 -7 0
-3 -8 0
-3 -9 0
-3 -10 0
-3 -11 0
-3 -12 0
-3 -13 0
-3 -14 0
-4 -5 0
-4 -6 0
-4 -7 0
-4 -8 0
-4 -9 0
-4 -10 0
-4 -11 0
-4 -12 0
-4 -13 0
-4 -14 0
-5 -6 0
-5 -7 0
-5 -8 0
-5 -9 0
-5 -10 0
-5 -11 0
-5 -12 0
-5 -13 0
-5 -14 0
-6 -7 0
-6 -8 0
-6 -9 0
-6 -10 0
-6 -11 0
-6 -12 0
-6 -13 0
-6 -14 0
-7 -8 0
-7 -9 0
-7 -10 0
-7 -11 0
-7 -12 0
-7 -13 0
-7 -14 0
-8 -9 0
-8 -10 0
-8 -11 0
-8 -12 0
-8 -13 0
-8 -14 0
-9 -10 0
-9 -11 0
-9 -12 0
-9 -13 0
-9 -14 0
-10 -11 0
-10 -12 0
-10 -13 0
-10 -14 0
-11 -12 0
-11 -13 0
-11 -14 0
-12 -13 0
-12 -14 0
-13 -14 0
3827 3828 3829 3830 3831 3832 3833 3834 3835 3836 3837 3838 3839 3840 3841 3842 3843 0
-3827 -3828 0
-3827 -3829 0
-3827 -3830 0
-3827 -3831 0
-3827 -3832 0
-3827 -3833 0
-3827 -3834 0
-3827 -3835 0
-3827 -3836 0
-3827 -3837 0
-3827 -3838 0
-3827 -3839 0
-3827 -3840 0
-3827 -3841 0
-3827 -3842 0
-3827 -3843 0
-3828 -3829 0
-3828 -3830 0
-3828 -3831 0
-3828 -3832 0
-3828 -3833 0
-3828 -3834 0
-3828 -3835 0
-3828 -3836 0
-3828 -3837 0
-3828 -3838 0
-3828 -3839 0
-3828 -3840 0
-3828 -3841 0
-3828 -3842 0
-3828 -3843 0
-3829 -3830 0
-3829 -3831 0
-3829 -3832 0
-3829 -3833 0
-3829 -3834 0
-3829 -3835 0
-3829 -3836 0
-3829 -3837 0
-3829 -3838 0
-3829 -3839 0
-3829 -3840 0
-3829 -3841 0
-3829 -3842 0
-3829 -3843 0
-3830 -3831 0
-3830 -3832 0
-3830 -3833 0
-3830 -3834 0
-3830 -3835 0
-3830 -3836 0
-3830 -3837 0
-3830 -3838 0
-3830 -3839 0
-3830 -3840 0
-3830 -3841 0
-3830 -3842 0
-3830 -3843 0
-3831 -3832 0
-3831 -3833 0
-3831 -3834 0
-3831 -3835 0
-3831 -3836 0
-3831 -3837 0
-3831 -3838 0
-3831 -3839 0
-3831 -3840 0
-3831 -3841 0
-3831 -3842 0
-3831 -3843 0
-3832 -3833 0
-3832 -3834 0
-3832 -3835 0
-3832 -3836 0
-3832 -3837 0
-3832 -3838 0
-3832 -3839 0
-3832 -3840 0
-3832 -3841 0
-3832 -3842 0
-3832 -3843 0
-3833 -3834 0
-3833 -3835 0
-3833 -3836 0
-3833 -3837 0
-3833 -3838 0
-3833 -3839 0
-3833 -3840 0
-3833 -3841 0
-3833 -3842 0
-3833 -3843 0
-3834 -3835 0
-3834 -3836 0
-3834 -3837 0
-3834 -3838 0
-3834 -3839 0
-3834 -3840 0
-3834 -3841 0
-3834 -3842 0
-3834 -3843 0
-3835 -3836 0
-3835 -3837 0
-3835 -3838 0
-3835 -3839 0
-3835 -3840 0
-3835 -3841 0
-3835 -3842 0
-3835 -3843 0
-3836 -3837 0
-3836 -3838 0
-3836 -3839 0
-3836 -3840 0
-3836 -3841 0
-3836 -3842 0
-3836 -3843 0
-3837 -3838 0
-3837 -3839 0
-3837 -3840 0
-3837 -3841 0
-3837 -3842 0
-3837 -3843 0
-3838 -3839 0
-3838 -3840 0
-3838 -3841 0
-3838 -3842 0
-3838 -3843 0
-3839 -3840 0
-3839 -3841 0
-3839 -3842 0
-3839 -3843 0
-3840 -3841 0
-3840 -3842 0
-3840 -3843 0
-3841 -3842 0
-3841 -3843 0
-3842 -3843 0
